(set-logic UF)
(declare-sort Set 0)
(declare-sort Elem 0)
(declare-fun member (Elem Set) Bool)
(declare-fun subset (Set Set) Bool)
(declare-fun seteq (Set Set) Bool)
(declare-fun union (Set Set) Set)
(declare-fun intersection (Set Set) Set)
(declare-fun difference (Set Set) Set)
(declare-fun a () Set)
(declare-fun b () Set)
(declare-fun c () Set)
(assert (not (member (choice ((?x Elem)) (not (or (not (member ?x (intersection (intersection a b) c))) (member ?x (intersection a (intersection b c)))))) a)))
(assert (and (member (choice ((?x Elem)) (not (or (not (member ?x (intersection (intersection a b) c))) (member ?x (intersection a (intersection b c)))))) a) (member (choice ((?x Elem)) (not (or (not (member ?x (intersection (intersection a b) c))) (member ?x (intersection a (intersection b c)))))) b)))
(assert (or (member (choice ((?x Elem)) (not (or (not (member ?x (intersection (intersection a b) c))) (member ?x (intersection a (intersection b c)))))) a) (not (and (member (choice ((?x Elem)) (not (or (not (member ?x (intersection (intersection a b) c))) (member ?x (intersection a (intersection b c)))))) a) (member (choice ((?x Elem)) (not (or (not (member ?x (intersection (intersection a b) c))) (member ?x (intersection a (intersection b c)))))) b)))))
(check-sat)
(exit)
